row=11;
column=11;
Board=[|0,1,1,0,1,0,1,0,1,0,1|1,0,0,1,0,1,0,0,0,0,0|0,1,0,0,0,0,0,0,1,0,0|0,0,0,0,0,0,1,0,0,0,0|0,0,0,0,0,0,0,0,0,0,0|0,0,1,0,0,0,0,0,0,0,1|1,0,0,0,0,0,0,1,0,0,0|0,0,0,1,0,1,0,0,0,0,0|0,0,0,0,0,0,0,0,0,0,0|1,0,1,0,0,0,0,1,0,1,0|0,0,0,0,0,0,0,0,0,0,0|];
right = [4,1,2,2,1,0,3,2,3,0,4];
bottom = [3,1,2,3,0,4,1,3,1,2,2];
